
  32    4
  10   10   10   10

   0   0   0   0   0   4 2 3 5 8 
   7   1   1   1   0   2 7 4 
   4   0   3   4   1   3 14 9 6 
   9   6   0   6   4   3 14 10 6 
   4   2   0   2   5   2 10 7 
   4   9   0   3   5   3 17 13 11 
   1   3   3   0   3   3 14 13 12 
  10   4   5   2   0   3 17 13 10 
   8   2   5   0   4   2 18 10 
   9   5   5   0   3   2 20 12 
   8   0   3   5   3   2 18 12 
   1   1   4   4   0   3 19 16 15 
   2   5   5   3   0   3 20 19 18 
   9   3   2   0   3   3 22 18 17 
   9   4   2   4   0   5 30 29 24 23 21 
   2   0   4   6   6   3 30 22 21 
   4   4   3   0   5   5 30 29 25 24 23 
   7   4   0   4   6   2 24 21 
   1   5   5   4   0   5 31 30 29 27 25 
   2   2  10   4   0   3 30 28 22 
   5   5   7   0   2   4 31 27 26 25 
   3   0   4   4   4   2 29 24 
   1   5   5   0   3   2 27 26 
   4   5   3   0   6   1 27 
   4   0   4   6   4   1 28 
   2   0   5   5   3   1 28 
   2   5   0   5   4   1 32
   9   4   5   0   7   1 32
   8   3   1   5   0   1 32
  10   0   4   3   3   1 32
   9   5   2   4   0   1 32
   0   0   0   0   0   0 
